50 1765
497 625 714 181 960 410 328 692 469 612 252 247 418 650 15 620 929 1042 234 553 545 495 165 969 874 170 747 707 785 384 838 281 940 47 279 60 62 594 792 432 263 737 595 224 524 811 362 492 340 578 
556 709 687 132 961 434 298 716 490 515 352 300 513 581 25 581 906 969 150 479 578 544 121 919 825 105 735 736 882 328 742 356 952 110 201 66 25 613 825 351 188 778 523 270 620 891 302 482 404 641 
